p cnf 958
-17 -297
-18 -300
-19 -303
-20 -306
-21 -309
-22 -312
-23 -315
-24 -318
-25 -321
-26 -324
-27 -327
-28 -330
-29 -333
-30 -336
-31 -339
-32 -342
-33 343
-34 344
-35 345
-36 346
-37 347
-38 -18
-38 -19
18 19 38
-39 -20
-39 -21
20 21 39
-40 -22
-40 -23
22 23 40
-41 -24
-41 -25
24 25 41
-42 -26
-42 -27
26 27 42
-43 -28
-43 -29
28 29 43
-44 -30
-44 -31
30 31 44
-45 -32
-45 -33
32 33 45
-46 -34
-46 -35
34 35 46
-47 -36
-47 -37
36 37 47
-48 38
-48 39
-38 -39 48
-49 40
-49 41
-40 -41 49
-50 42
-50 43
-42 -43 50
-51 44
-51 45
-44 -45 51
-52 46
-52 47
-46 -47 52
-53 48
-53 49
-48 -49 53
-54 50
-54 51
-50 -51 54
-55 53
-55 54
-53 -54 55
-56 52
-56 55
-52 -55 56
-57 -17
-57 18
17 -18 57
-58 17
-58 -18
-17 18 58
-59 -57
-59 -58
57 58 59
-60 17
-60 18
-17 -18 60
-61 -17
-61 -59
17 59 61
-62 17
-62 59
-17 -59 62
-63 -61
-63 -62
61 62 63
-64 17
-64 -59
-17 59 64
-65 -60
-65 -64
60 64 65
-66 -18
-66 19
18 -19 66
-67 18
-67 -19
-18 19 67
-68 -66
-68 -67
66 67 68
-69 18
-69 19
-18 -19 69
-70 65
-70 -68
-65 68 70
-71 -65
-71 68
65 -68 71
-72 -70
-72 -71
70 71 72
-73 -65
-73 -68
65 68 73
-74 -69
-74 -73
69 73 74
-75 -19
-75 20
19 -20 75
-76 19
-76 -20
-19 20 76
-77 -75
-77 -76
75 76 77
-78 19
-78 20
-19 -20 78
-79 74
-79 -77
-74 77 79
-80 -74
-80 77
74 -77 80
-81 -79
-81 -80
79 80 81
-82 -74
-82 -77
74 77 82
-83 -78
-83 -82
78 82 83
-84 -20
-84 21
20 -21 84
-85 20
-85 -21
-20 21 85
-86 -84
-86 -85
84 85 86
-87 20
-87 21
-20 -21 87
-88 83
-88 -86
-83 86 88
-89 -83
-89 86
83 -86 89
-90 -88
-90 -89
88 89 90
-91 -83
-91 -86
83 86 91
-92 -87
-92 -91
87 91 92
-93 -21
-93 22
21 -22 93
-94 21
-94 -22
-21 22 94
-95 -93
-95 -94
93 94 95
-96 21
-96 22
-21 -22 96
-97 92
-97 -95
-92 95 97
-98 -92
-98 95
92 -95 98
-99 -97
-99 -98
97 98 99
-100 -92
-100 -95
92 95 100
-101 -96
-101 -100
96 100 101
-102 -22
-102 23
22 -23 102
-103 22
-103 -23
-22 23 103
-104 -102
-104 -103
102 103 104
-105 22
-105 23
-22 -23 105
-106 101
-106 -104
-101 104 106
-107 -101
-107 104
101 -104 107
-108 -106
-108 -107
106 107 108
-109 -101
-109 -104
101 104 109
-110 -105
-110 -109
105 109 110
-111 -23
-111 24
23 -24 111
-112 23
-112 -24
-23 24 112
-113 -111
-113 -112
111 112 113
-114 23
-114 24
-23 -24 114
-115 110
-115 -113
-110 113 115
-116 -110
-116 113
110 -113 116
-117 -115
-117 -116
115 116 117
-118 -110
-118 -113
110 113 118
-119 -114
-119 -118
114 118 119
-120 -24
-120 25
24 -25 120
-121 24
-121 -25
-24 25 121
-122 -120
-122 -121
120 121 122
-123 24
-123 25
-24 -25 123
-124 119
-124 -122
-119 122 124
-125 -119
-125 122
119 -122 125
-126 -124
-126 -125
124 125 126
-127 -119
-127 -122
119 122 127
-128 -123
-128 -127
123 127 128
-129 -25
-129 26
25 -26 129
-130 25
-130 -26
-25 26 130
-131 -129
-131 -130
129 130 131
-132 25
-132 26
-25 -26 132
-133 128
-133 -131
-128 131 133
-134 -128
-134 131
128 -131 134
-135 -133
-135 -134
133 134 135
-136 -128
-136 -131
128 131 136
-137 -132
-137 -136
132 136 137
-138 -26
-138 27
26 -27 138
-139 26
-139 -27
-26 27 139
-140 -138
-140 -139
138 139 140
-141 26
-141 27
-26 -27 141
-142 137
-142 -140
-137 140 142
-143 -137
-143 140
137 -140 143
-144 -142
-144 -143
142 143 144
-145 -137
-145 -140
137 140 145
-146 -141
-146 -145
141 145 146
-147 -27
-147 28
27 -28 147
-148 27
-148 -28
-27 28 148
-149 -147
-149 -148
147 148 149
-150 27
-150 28
-27 -28 150
-151 146
-151 -149
-146 149 151
-152 -146
-152 149
146 -149 152
-153 -151
-153 -152
151 152 153
-154 -146
-154 -149
146 149 154
-155 -150
-155 -154
150 154 155
-156 -28
-156 29
28 -29 156
-157 28
-157 -29
-28 29 157
-158 -156
-158 -157
156 157 158
-159 28
-159 29
-28 -29 159
-160 155
-160 -158
-155 158 160
-161 -155
-161 158
155 -158 161
-162 -160
-162 -161
160 161 162
-163 -155
-163 -158
155 158 163
-164 -159
-164 -163
159 163 164
-165 -29
-165 30
29 -30 165
-166 29
-166 -30
-29 30 166
-167 -165
-167 -166
165 166 167
-168 29
-168 30
-29 -30 168
-169 164
-169 -167
-164 167 169
-170 -164
-170 167
164 -167 170
-171 -169
-171 -170
169 170 171
-172 -164
-172 -167
164 167 172
-173 -168
-173 -172
168 172 173
-174 -30
-174 31
30 -31 174
-175 30
-175 -31
-30 31 175
-176 -174
-176 -175
174 175 176
-177 30
-177 31
-30 -31 177
-178 173
-178 -176
-173 176 178
-179 -173
-179 176
173 -176 179
-180 -178
-180 -179
178 179 180
-181 -173
-181 -176
173 176 181
-182 -177
-182 -181
177 181 182
-183 -31
-183 32
31 -32 183
-184 31
-184 -32
-31 32 184
-185 -183
-185 -184
183 184 185
-186 31
-186 32
-31 -32 186
-187 182
-187 -185
-182 185 187
-188 -182
-188 185
182 -185 188
-189 -187
-189 -188
187 188 189
-190 -182
-190 -185
182 185 190
-191 -186
-191 -190
186 190 191
-192 -32
-192 33
32 -33 192
-193 32
-193 -33
-32 33 193
-194 -192
-194 -193
192 193 194
-195 32
-195 33
-32 -33 195
-196 191
-196 -194
-191 194 196
-197 -191
-197 194
191 -194 197
-198 -196
-198 -197
196 197 198
-199 -191
-199 -194
191 194 199
-200 -195
-200 -199
195 199 200
-201 -33
-201 34
33 -34 201
-202 33
-202 -34
-33 34 202
-203 -201
-203 -202
201 202 203
-204 33
-204 34
-33 -34 204
-205 200
-205 -203
-200 203 205
-206 -200
-206 203
200 -203 206
-207 -205
-207 -206
205 206 207
-208 -200
-208 -203
200 203 208
-209 -204
-209 -208
204 208 209
-210 -34
-210 35
34 -35 210
-211 34
-211 -35
-34 35 211
-212 -210
-212 -211
210 211 212
-213 34
-213 35
-34 -35 213
-214 209
-214 -212
-209 212 214
-215 -209
-215 212
209 -212 215
-216 -214
-216 -215
214 215 216
-217 -209
-217 -212
209 212 217
-218 -213
-218 -217
213 217 218
-219 -35
-219 36
35 -36 219
-220 35
-220 -36
-35 36 220
-221 -219
-221 -220
219 220 221
-222 35
-222 36
-35 -36 222
-223 218
-223 -221
-218 221 223
-224 -218
-224 221
218 -221 224
-225 -223
-225 -224
223 224 225
-226 -218
-226 -221
218 221 226
-227 -222
-227 -226
222 226 227
-228 -36
-228 37
36 -37 228
-229 36
-229 -37
-36 37 229
-230 -228
-230 -229
228 229 230
-231 36
-231 37
-36 -37 231
-232 227
-232 -230
-227 230 232
-233 -227
-233 230
227 -230 233
-234 -232
-234 -233
232 233 234
-235 -227
-235 -230
227 230 235
-236 -231
-236 -235
231 235 236
-237 17
-237 -63
-17 63 237
-238 -17
-238 19
17 -19 238
-239 -237
-239 -238
237 238 239
-240 17
-240 -72
-17 72 240
-241 -17
-241 20
17 -20 241
-242 -240
-242 -241
240 241 242
-243 17
-243 -81
-17 81 243
-244 -17
-244 21
17 -21 244
-245 -243
-245 -244
243 244 245
-246 17
-246 -90
-17 90 246
-247 -17
-247 22
17 -22 247
-248 -246
-248 -247
246 247 248
-249 17
-249 -99
-17 99 249
-250 -17
-250 23
17 -23 250
-251 -249
-251 -250
249 250 251
-252 17
-252 -108
-17 108 252
-253 -17
-253 24
17 -24 253
-254 -252
-254 -253
252 253 254
-255 17
-255 -117
-17 117 255
-256 -17
-256 25
17 -25 256
-257 -255
-257 -256
255 256 257
-258 17
-258 -126
-17 126 258
-259 -17
-259 26
17 -26 259
-260 -258
-260 -259
258 259 260
-261 17
-261 -135
-17 135 261
-262 -17
-262 27
17 -27 262
-263 -261
-263 -262
261 262 263
-264 17
-264 -144
-17 144 264
-265 -17
-265 28
17 -28 265
-266 -264
-266 -265
264 265 266
-267 17
-267 -153
-17 153 267
-268 -17
-268 29
17 -29 268
-269 -267
-269 -268
267 268 269
-270 17
-270 -162
-17 162 270
-271 -17
-271 30
17 -30 271
-272 -270
-272 -271
270 271 272
-273 17
-273 -171
-17 171 273
-274 -17
-274 31
17 -31 274
-275 -273
-275 -274
273 274 275
-276 17
-276 -180
-17 180 276
-277 -17
-277 32
17 -32 277
-278 -276
-278 -277
276 277 278
-279 17
-279 -189
-17 189 279
-280 -17
-280 33
17 -33 280
-281 -279
-281 -280
279 280 281
-282 17
-282 -198
-17 198 282
-283 -17
-283 34
17 -34 283
-284 -282
-284 -283
282 283 284
-285 17
-285 -207
-17 207 285
-286 -17
-286 35
17 -35 286
-287 -285
-287 -286
285 286 287
-288 17
-288 -216
-17 216 288
-289 -17
-289 36
17 -36 289
-290 -288
-290 -289
288 289 290
-291 17
-291 -225
-17 225 291
-292 -17
-292 37
17 -37 292
-293 -291
-293 -292
291 292 293
-294 17
-294 -234
-17 234 294
-295 1
-295 56
-1 -56 295
-296 -56
-296 57
56 -57 296
-297 -295
-297 -296
295 296 297
-298 2
-298 56
-2 -56 298
-299 -56
-299 -239
56 239 299
-300 -298
-300 -299
298 299 300
-301 3
-301 56
-3 -56 301
-302 -56
-302 -242
56 242 302
-303 -301
-303 -302
301 302 303
-304 4
-304 56
-4 -56 304
-305 -56
-305 -245
56 245 305
-306 -304
-306 -305
304 305 306
-307 5
-307 56
-5 -56 307
-308 -56
-308 -248
56 248 308
-309 -307
-309 -308
307 308 309
-310 6
-310 56
-6 -56 310
-311 -56
-311 -251
56 251 311
-312 -310
-312 -311
310 311 312
-313 7
-313 56
-7 -56 313
-314 -56
-314 -254
56 254 314
-315 -313
-315 -314
313 314 315
-316 8
-316 56
-8 -56 316
-317 -56
-317 -257
56 257 317
-318 -316
-318 -317
316 317 318
-319 9
-319 56
-9 -56 319
-320 -56
-320 -260
56 260 320
-321 -319
-321 -320
319 320 321
-322 10
-322 56
-10 -56 322
-323 -56
-323 -263
56 263 323
-324 -322
-324 -323
322 323 324
-325 11
-325 56
-11 -56 325
-326 -56
-326 -266
56 266 326
-327 -325
-327 -326
325 326 327
-328 12
-328 56
-12 -56 328
-329 -56
-329 -269
56 269 329
-330 -328
-330 -329
328 329 330
-331 13
-331 56
-13 -56 331
-332 -56
-332 -272
56 272 332
-333 -331
-333 -332
331 332 333
-334 14
-334 56
-14 -56 334
-335 -56
-335 -275
56 275 335
-336 -334
-336 -335
334 335 336
-337 15
-337 56
-15 -56 337
-338 -56
-338 -278
56 278 338
-339 -337
-339 -338
337 338 339
-340 16
-340 56
-16 -56 340
-341 -56
-341 -281
56 281 341
-342 -340
-342 -341
340 341 342
-343 -56
-343 -284
56 284 343
-344 -56
-344 -287
56 287 344
-345 -56
-345 -290
56 290 345
-346 -56
-346 -293
56 293 346
-347 -56
-347 294
56 -294 347
-348 -37
-348 236
37 -236 348
-349 17
-349 -348
-17 348 349
349
